W=4;
H=3;

MAX_TIME=8;
MAX_TRACKS=7;

TARGET=(1,4);

TRAINS=[(3,4,LEFT)];
DECOYS=[];

INIT_POS=[
(1,4,STRAIGHT_RL),
(2,2,ROCK),
(2,3,ROCK),
(2,4,ROCK),
(3,4,STRAIGHT_RL),
];
TUNNEL_PAIRS=[];

GATES=[];
ACTIVATIONS=[];

DSWITCHES=[];

STATIONS=[];

SEMAPHORE_SUPPLY=0;
